20 5 1 1 111111
30 4 1 7 2 6 4 8 5 9 4 1 6 2 5 3 4 4 8 3 2 3 4 3 5 5 3 1 10 3 8 5 10 4 1 1 2 1 3 1 5 10 4 1 8 3 9 4 9 5 1 4 1 7 3 10 4 3 5 6 4 1 5 2 10 4 10 5 5 3 1 10 4 1 5 6 3 1 8 3 1 4 1 4 1 4 2 7 3 5 4 1 4 2 4 3 4 4 5 5 9 3 1 3 3 7 4 5 4 1 10 2 9 3 10 5 4 3 1 1 3 2 5 1 4 1 3 2 1 3 2 5 4 4 1 3 2 7 3 6 4 9 3 2 3 4 1 5 2 3 1 2 3 7 5 9 4 1 6 2 10 3 4 4 9 4 1 10 3 5 4 10 5 4 3 1 10 4 9 5 9 4 1 6 2 4 3 5 4 2 3 3 7 4 9 5 2 4 1 7 2 1 3 6 5 5 4 2 6 3 5 4 6 5 8 4 2 3 3 8 4 8 5 8 4 1 3 3 9 4 2 5 2 4 2 8 3 7 4 10 5 7 4 1 6 2 8 3 4 4 8 
30 4 2 5 3 2 4 3 5 6 3 1 4 2 9 4 9 3 2 7 4 2 5 3 4 2 3 3 2 4 3 5 7 4 1 1 2 5 3 7 5 3 4 1 7 3 8 4 5 5 9 3 1 2 3 8 5 5 3 1 6 2 9 3 2 4 1 5 2 6 3 3 4 7 3 2 1 3 4 4 4 3 1 7 2 6 4 10 4 2 6 3 7 4 2 5 4 3 1 10 3 8 5 9 4 1 5 3 2 4 9 5 3 4 1 10 2 1 4 3 5 5 4 2 5 3 2 4 2 5 10 4 1 4 2 2 3 6 4 4 3 1 10 3 2 5 6 3 2 8 4 8 5 8 4 1 3 2 2 3 3 5 2 3 2 2 3 9 5 4 4 1 9 2 8 3 4 4 3 4 1 10 2 2 3 9 5 9 4 1 7 2 5 3 1 5 5 3 1 7 2 9 4 5 3 3 3 4 8 5 3 3 1 2 2 9 5 1 3 1 1 3 4 5 1 3 1 2 4 5 5 8 3 1 5 4 7 5 8 
30 4 2 10 3 8 4 5 5 8 4 1 1 2 2 3 5 4 4 3 1 7 3 3 5 6 3 2 5 3 5 5 7 3 1 3 2 10 5 4 4 1 4 2 5 3 1 5 8 3 1 5 2 4 4 6 3 1 6 2 10 4 4 3 1 2 2 10 5 3 3 2 8 3 3 5 6 4 1 4 2 6 3 9 5 7 3 2 1 3 3 4 8 3 3 3 4 2 5 3 4 1 9 2 6 3 3 4 5 4 1 2 2 8 4 6 5 5 3 2 6 4 4 5 2 3 2 5 4 2 5 10 4 1 8 2 4 3 1 5 7 3 2 4 3 2 5 8 3 1 8 3 9 5 4 4 1 7 3 10 4 2 5 7 3 1 8 4 5 5 10 3 2 1 3 4 4 9 3 1 10 3 4 4 10 4 1 9 2 1 4 10 5 7 4 1 10 2 5 3 1 5 9 3 2 6 3 4 5 2 4 1 4 2 5 3 3 5 1 4 2 3 3 7 4 1 5 8 3 2 2 4 6 5 6 
30 4 1 2 2 6 3 9 4 5 4 1 7 2 3 3 10 5 9 4 1 6 3 2 4 2 5 8 4 1 10 2 7 3 10 4 3 3 1 1 3 7 5 3 3 1 7 3 9 5 5 4 1 7 3 7 4 8 5 6 4 1 5 2 6 3 10 4 5 4 2 9 3 1 4 1 5 8 4 1 4 2 9 3 5 4 8 3 1 7 2 5 3 7 4 1 7 2 5 3 10 4 9 3 1 2 4 10 5 5 4 1 10 2 4 3 7 4 4 3 2 5 3 5 4 5 3 2 4 3 10 4 10 4 2 2 3 5 4 4 5 8 3 1 2 3 4 4 4 3 2 8 3 5 5 4 3 2 9 3 5 5 3 4 1 3 3 9 4 8 5 9 3 1 8 3 1 5 6 3 1 5 2 10 4 3 4 1 3 2 4 3 9 4 7 3 1 1 2 1 4 2 4 1 8 2 6 3 6 5 3 3 1 7 3 5 5 2 3 2 4 4 8 5 1 3 2 4 3 4 5 7 3 3 7 4 9 5 1 
30 3 2 9 3 10 4 6 4 1 1 3 9 4 3 5 1 4 1 3 2 1 3 2 4 7 3 1 7 3 5 4 7 3 1 6 2 4 4 6 4 1 9 2 9 4 7 5 7 3 2 7 3 9 4 1 4 1 5 2 5 3 5 5 6 3 1 5 3 7 5 5 3 1 8 2 3 3 6 3 1 9 2 2 3 4 3 2 7 4 4 5 1 3 1 6 2 1 4 2 4 1 2 2 10 3 5 5 3 4 2 9 3 2 4 8 5 9 4 1 3 2 10 3 1 4 3 4 1 7 2 8 3 5 5 5 3 1 9 2 10 5 3 3 1 2 2 6 4 2 4 1 5 3 2 4 6 5 8 3 2 10 3 9 5 9 4 1 7 2 9 4 7 5 7 3 2 3 3 3 5 5 4 1 3 2 8 3 7 5 7 4 1 5 2 3 3 5 4 1 4 1 8 2 2 3 3 5 6 4 2 2 3 7 4 10 5 4 4 1 4 2 2 3 6 4 3 4 1 6 2 9 4 10 5 3 4 1 4 2 6 3 6 4 1 
30 3 1 8 2 4 3 8 4 1 4 2 3 4 1 5 2 4 1 7 2 7 4 2 5 6 3 1 9 3 3 5 9 3 2 9 3 3 4 1 4 1 5 2 10 3 6 4 7 4 1 2 2 6 3 10 4 6 4 1 10 2 7 4 10 5 9 3 1 4 2 10 5 8 4 1 3 2 5 4 1 5 8 4 1 2 2 9 3 7 4 7 3 2 8 3 7 5 10 3 1 2 2 6 5 2 4 1 1 2 3 4 6 5 8 3 1 4 2 9 5 9 3 1 7 2 6 4 6 4 1 10 2 9 4 10 5 7 4 1 6 2 5 4 7 5 7 3 1 5 2 10 3 2 4 1 1 2 8 3 7 4 10 4 1 7 3 5 4 4 5 6 4 1 10 2 6 3 9 4 9 3 2 6 3 2 5 1 4 1 2 2 5 3 6 5 4 3 1 1 2 5 3 10 4 2 3 3 6 4 2 5 7 3 2 4 3 5 4 2 3 2 4 4 9 5 4 3 1 7 2 10 5 1 3 2 3 3 2 4 9 
30 4 1 9 2 6 3 9 5 6 3 1 1 2 2 5 9 4 2 1 3 8 4 4 5 9 3 1 7 3 4 5 10 4 1 10 2 8 3 6 4 8 3 2 9 3 1 4 10 4 1 6 2 6 3 1 5 1 4 2 5 3 10 4 9 5 8 4 1 5 2 2 3 2 4 7 4 2 9 3 1 4 8 5 2 4 1 10 3 5 4 1 5 5 3 2 4 4 2 5 4 4 1 8 3 3 4 2 5 2 4 2 1 3 2 4 2 5 10 3 1 2 4 6 5 8 4 1 10 2 6 4 7 5 8 3 1 1 2 5 5 7 4 1 10 3 3 4 8 5 5 4 1 10 3 10 4 9 5 7 3 3 7 4 8 5 8 4 2 2 3 9 4 6 5 10 4 1 1 2 8 3 3 5 5 4 1 9 2 4 4 10 5 8 3 1 5 2 2 4 1 4 1 3 2 6 3 10 4 6 4 1 3 3 9 4 1 5 2 4 1 4 2 7 4 7 5 8 4 1 3 2 2 3 8 5 5 4 1 1 2 9 3 3 5 7 4 1 7 2 9 4 7 5 6 
30 3 1 8 3 8 4 10 3 2 6 4 4 5 8 4 1 7 2 6 3 3 4 6 3 1 8 4 3 5 7 4 1 6 2 7 3 1 5 2 3 2 9 3 1 5 1 3 1 5 3 7 4 10 3 1 6 4 4 5 9 4 2 4 3 1 4 7 5 9 3 1 8 3 7 5 4 3 1 7 2 5 5 9 3 2 8 3 8 5 5 3 3 3 4 2 5 7 4 1 6 2 2 3 6 4 7 3 3 3 4 7 5 8 4 1 3 2 2 3 9 4 9 3 3 7 4 8 5 5 3 2 10 3 6 4 8 3 3 5 4 3 5 3 4 1 1 2 9 4 5 5 5 3 1 2 3 1 5 8 4 1 6 3 3 4 9 5 10 4 1 6 3 3 4 5 5 8 3 3 8 4 8 5 4 4 2 5 3 10 4 4 5 7 4 1 7 2 2 3 10 5 1 3 2 3 3 7 4 6 3 1 2 2 7 5 5 3 1 2 3 7 4 1 4 1 8 2 2 4 4 5 4 
30 4 1 6 2 3 3 2 5 5 4 1 8 2 1 3 7 4 5 3 1 5 4 4 5 4 3 1 10 3 5 5 3 4 1 6 2 9 3 4 5 3 4 1 9 2 7 3 10 4 2 4 1 1 2 10 3 9 4 7 4 1 2 2 2 3 2 4 5 3 1 9 2 7 5 7 4 2 1 3 5 4 2 5 2 3 2 9 3 7 5 8 3 2 9 3 1 5 1 3 3 9 4 7 5 9 3 1 5 2 8 4 8 4 1 3 2 8 3 2 4 4 3 2 9 3 6 5 2 3 2 8 3 3 4 3 3 1 6 2 10 4 1 3 2 4 3 4 5 8 4 1 7 2 9 3 7 4 3 3 1 10 3 4 5 6 3 1 10 2 6 5 3 3 2 6 3 6 5 1 4 2 4 3 9 4 2 5 7 3 3 8 4 2 5 3 3 1 7 4 4 5 10 3 1 10 3 10 5 8 4 1 7 2 6 3 8 4 1 3 3 9 4 9 5 4 4 1 7 2 3 3 7 5 1 
30 3 1 1 3 6 4 4 4 1 5 3 4 4 2 5 2 3 1 6 2 10 4 2 4 1 2 2 6 4 5 5 7 4 1 6 2 9 3 1 4 10 4 1 9 2 3 3 9 4 10 4 1 6 3 10 4 3 5 10 3 2 8 3 1 4 5 3 2 6 4 5 5 9 4 1 4 3 1 4 10 5 10 3 3 5 4 5 5 3 3 2 6 4 6 5 6 3 2 1 4 1 5 10 3 1 2 3 10 4 2 3 3 8 4 1 5 10 4 1 8 2 7 3 10 4 5 3 1 10 3 9 4 4 3 2 5 3 8 5 5 3 1 7 3 10 5 4 4 1 5 2 9 4 9 5 2 4 1 6 3 3 4 5 5 4 3 1 8 2 10 5 9 4 1 4 2 4 3 5 4 9 4 1 4 2 6 3 5 4 2 3 1 6 3 6 4 3 4 1 2 2 3 4 10 5 9 4 1 5 2 6 3 5 5 3 4 2 1 3 2 4 6 5 4 4 1 9 2 5 4 4 5 4 4 1 9 3 4 4 9 5 3 
30 4 1 1 2 1 3 10 4 10 3 1 8 3 3 5 3 4 1 9 2 6 3 1 5 2 3 1 9 2 5 3 9 3 1 8 3 7 5 8 3 1 8 2 8 5 6 3 3 7 4 8 5 5 3 2 2 4 8 5 4 4 1 2 2 7 3 2 5 7 3 1 4 2 8 3 3 4 1 8 2 2 3 9 4 4 3 1 10 3 8 4 9 3 2 10 3 7 5 10 3 1 4 2 10 3 6 4 2 6 3 5 4 2 5 6 4 1 2 2 5 3 1 4 3 3 1 10 2 6 5 10 4 1 10 2 5 3 3 4 8 3 1 4 2 7 4 6 4 1 4 2 4 3 6 5 8 3 1 2 2 3 3 10 4 1 5 2 5 3 4 5 2 3 1 1 3 9 5 4 3 1 7 4 4 5 1 3 1 2 2 2 5 5 3 2 9 3 6 5 7 4 1 5 2 6 3 2 4 5 3 1 4 2 3 4 6 4 1 3 2 4 3 1 4 9 3 1 8 2 4 3 7 
30 4 1 3 2 10 3 6 5 1 3 2 8 3 2 4 9 3 1 3 2 10 5 3 4 1 8 3 7 4 8 5 9 4 2 6 3 10 4 2 5 3 3 1 10 2 6 5 8 3 1 7 2 5 4 2 4 1 9 2 4 4 3 5 9 3 3 5 4 8 5 6 3 3 10 4 8 5 6 3 3 6 4 8 5 5 4 1 5 2 6 3 4 4 6 3 1 7 4 7 5 9 4 1 8 2 2 4 1 5 9 4 2 7 3 3 4 10 5 6 3 1 4 2 7 3 6 3 1 4 2 3 5 5 4 1 8 2 10 3 7 4 6 3 1 2 2 3 3 2 4 1 3 2 9 3 8 5 6 3 3 1 4 1 5 3 4 1 8 2 8 4 7 5 8 3 3 6 4 8 5 3 3 1 4 4 2 5 4 3 1 4 4 1 5 10 3 2 2 3 7 5 4 4 1 10 2 9 4 2 5 4 3 1 6 2 10 5 7 3 2 1 4 5 5 4 3 2 10 3 6 4 2 
30 4 2 9 3 10 4 9 5 10 3 1 5 3 2 4 6 4 1 3 2 1 4 6 5 1 4 2 10 3 4 4 10 5 4 4 2 5 3 3 4 10 5 8 3 3 6 4 6 5 7 3 2 6 4 2 5 5 3 2 7 4 10 5 9 4 1 9 2 8 4 3 5 2 3 1 8 3 2 5 8 3 2 4 3 8 4 4 4 1 4 2 10 3 6 5 4 4 1 10 2 1 4 1 5 7 3 1 8 2 4 4 7 3 1 8 4 3 5 9 4 1 4 2 10 3 1 5 1 4 1 8 2 3 3 5 5 6 4 2 7 3 10 4 4 5 7 3 1 6 3 4 4 9 3 1 10 4 8 5 5 3 2 7 3 6 4 7 3 3 8 4 2 5 3 4 2 4 3 4 4 6 5 9 4 1 1 2 7 3 7 4 6 4 1 2 2 7 3 2 5 10 4 2 9 3 5 4 4 5 5 4 2 2 3 7 4 5 5 8 3 1 10 2 6 4 7 4 2 3 3 8 4 5 5 2 4 1 4 2 6 4 6 5 2 
30 3 2 2 3 8 5 10 4 1 9 3 2 4 2 5 10 4 1 9 2 1 3 6 4 3 4 1 3 2 8 3 10 5 2 3 1 8 2 4 4 1 3 2 8 4 4 5 10 4 1 10 2 5 3 4 5 7 3 2 8 4 8 5 10 4 1 1 2 3 4 1 5 4 4 1 1 3 5 4 7 5 8 3 2 8 3 10 4 1 4 1 2 3 7 4 9 5 8 4 2 8 3 10 4 9 5 7 3 1 1 2 5 3 3 3 1 5 2 9 3 5 3 2 7 4 8 5 7 3 2 1 3 9 4 7 3 2 3 4 6 5 7 4 2 8 3 5 4 7 5 10 3 1 5 3 9 5 2 3 1 6 2 3 3 5 4 2 6 3 4 4 1 5 2 3 2 10 4 2 5 4 3 1 6 2 7 3 7 3 2 1 3 4 5 5 4 1 4 2 2 3 2 4 9 4 1 4 2 1 3 1 4 4 4 1 1 2 6 3 8 5 10 4 2 7 3 1 4 8 5 2 4 1 9 2 9 4 6 5 7 
30 3 1 2 3 4 5 1 4 1 9 3 8 4 2 5 9 4 1 1 2 3 4 3 5 7 4 2 3 3 8 4 5 5 1 3 1 10 2 9 3 5 3 1 1 2 1 3 6 3 1 7 3 7 5 2 4 1 3 3 5 4 5 5 8 3 1 5 2 4 5 6 3 1 1 3 6 4 3 4 1 1 2 5 3 10 5 6 4 1 3 2 4 3 2 4 9 4 2 9 3 8 4 9 5 10 4 1 8 2 3 3 8 4 7 3 2 5 3 5 5 1 4 1 5 2 9 3 1 4 7 4 2 9 3 7 4 8 5 6 4 2 7 3 9 4 5 5 7 4 1 6 2 9 4 1 5 3 4 1 7 2 1 4 10 5 2 4 1 1 2 7 4 3 5 4 4 1 10 2 7 4 1 5 2 3 3 3 4 1 5 10 4 1 3 3 8 4 3 5 8 4 1 1 2 6 4 10 5 4 3 2 5 3 9 5 3 3 1 2 3 6 5 1 4 1 6 2 3 3 2 5 7 3 3 1 4 3 5 1 4 1 8 2 9 4 1 5 1 
30 4 1 1 2 4 3 4 5 3 4 1 8 3 3 4 1 5 6 4 1 3 2 1 3 4 5 4 3 2 1 4 9 5 9 3 1 4 4 9 5 1 4 2 4 3 8 4 10 5 5 4 1 1 2 7 3 4 4 6 4 1 6 3 8 4 3 5 4 4 2 3 3 4 4 7 5 6 3 1 5 3 2 5 6 4 1 4 2 4 3 3 5 3 4 1 10 2 2 3 6 4 9 4 1 6 2 4 3 1 5 2 4 1 5 3 5 4 8 5 5 3 1 10 2 10 5 5 4 2 4 3 1 4 9 5 8 3 1 1 3 9 4 3 3 3 8 4 10 5 1 4 2 10 3 9 4 7 5 3 4 1 10 2 10 4 6 5 10 4 1 7 2 3 3 6 5 4 3 1 9 2 10 5 7 4 1 10 2 7 3 9 5 5 3 1 9 2 5 3 2 3 1 9 3 1 4 1 4 2 1 3 4 4 8 5 6 3 2 5 4 3 5 10 4 1 8 3 1 4 9 5 8 3 1 7 2 8 5 4 3 2 4 4 10 5 7 
30 3 1 10 3 8 4 2 3 3 5 4 3 5 6 4 2 5 3 4 4 9 5 4 4 1 9 2 2 4 8 5 6 4 1 8 2 6 3 4 4 5 4 1 2 2 4 4 7 5 8 3 3 9 4 9 5 8 4 1 9 2 7 4 7 5 8 4 2 1 3 1 4 8 5 5 4 1 7 2 2 3 1 5 9 4 1 5 2 7 3 1 5 6 4 1 1 2 8 3 2 4 3 3 1 6 3 2 5 5 3 1 7 4 4 5 10 4 1 3 2 2 4 7 5 1 4 2 2 3 5 4 9 5 9 4 2 10 3 9 4 7 5 7 3 1 3 3 8 4 3 4 2 1 3 2 4 1 5 4 4 1 10 3 10 4 7 5 6 4 1 9 2 7 3 3 4 4 4 1 4 3 7 4 9 5 8 4 1 7 2 9 4 1 5 2 3 1 6 2 2 4 3 3 1 8 2 8 5 2 3 1 10 2 10 5 1 4 2 5 3 9 4 8 5 10 4 1 3 2 8 3 7 4 3 3 2 3 3 4 5 1 3 1 6 2 3 4 7 
30 4 1 9 2 8 3 6 4 3 4 1 3 3 2 4 7 5 7 3 2 3 3 1 4 3 3 2 2 3 1 4 3 4 1 10 2 6 4 10 5 6 3 3 6 4 5 5 5 4 2 6 3 2 4 2 5 1 3 1 1 3 4 5 9 4 1 9 2 2 3 1 5 2 4 1 4 2 10 3 1 4 2 4 1 4 3 9 4 2 5 1 4 1 3 2 10 3 6 4 10 4 1 1 3 3 4 2 5 5 3 1 4 2 3 5 4 4 2 7 3 4 4 2 5 9 3 2 2 3 3 4 9 3 1 5 2 9 4 8 4 1 6 3 3 4 4 5 10 4 1 10 2 7 3 6 4 5 3 1 5 3 4 5 3 4 1 4 2 5 4 10 5 4 4 2 10 3 4 4 8 5 1 3 1 8 2 8 5 2 3 2 10 4 8 5 8 4 1 10 2 7 3 3 4 3 4 1 2 3 2 4 9 5 8 4 1 8 3 2 4 1 5 9 3 1 8 3 3 5 9 4 1 8 3 8 4 4 5 5 3 1 9 3 8 5 2 
30 4 1 9 2 8 4 7 5 4 4 2 7 3 6 4 1 5 2 3 1 8 2 2 5 3 4 1 3 3 7 4 9 5 8 3 1 6 4 9 5 7 4 1 1 3 5 4 2 5 8 4 1 1 2 9 4 9 5 7 3 1 1 3 2 5 8 3 2 8 3 6 4 6 3 1 5 3 6 4 1 3 1 6 4 10 5 1 4 1 1 2 5 3 3 5 10 4 2 10 3 4 4 3 5 5 4 1 3 2 2 4 10 5 5 4 1 2 3 2 4 7 5 6 3 3 9 4 1 5 8 4 1 2 2 6 3 10 5 10 4 1 2 2 8 3 9 5 2 4 2 8 3 7 4 3 5 4 3 3 4 4 8 5 5 4 1 8 2 9 4 10 5 3 3 1 4 2 1 3 2 4 1 3 2 9 3 10 4 9 3 1 9 2 1 5 5 3 1 8 2 5 4 1 4 1 4 2 10 3 7 4 10 4 1 5 2 3 3 2 4 1 4 1 5 3 1 4 6 5 5 3 2 4 4 1 5 8 3 2 9 4 4 5 1 
30 4 1 2 2 5 3 10 4 2 4 1 8 3 3 4 4 5 2 4 1 8 2 5 3 1 5 2 3 3 8 4 4 5 10 3 1 7 2 1 5 8 4 1 5 2 4 3 7 5 6 3 2 4 4 2 5 1 4 1 9 2 2 4 1 5 2 3 1 2 4 5 5 10 4 1 3 3 4 4 5 5 2 4 2 3 3 4 4 3 5 5 4 1 7 2 3 3 5 4 9 4 1 3 2 10 3 9 4 2 3 1 1 4 9 5 9 3 2 4 3 7 5 3 3 1 3 4 2 5 6 3 1 6 4 4 5 10 4 2 6 3 4 4 6 5 9 3 2 5 3 5 4 7 3 1 9 4 6 5 3 4 1 8 3 8 4 8 5 3 3 2 5 3 3 4 6 4 1 2 3 1 4 6 5 4 4 2 5 3 1 4 3 5 3 3 2 8 3 4 5 8 4 2 7 3 6 4 9 5 9 3 1 6 2 1 4 1 4 1 6 2 5 4 2 5 6 3 2 2 3 6 5 8 4 1 2 2 9 3 7 5 7 
0 3 1 18 20 
1 0 3 2 3 5 
1 1 3 4 8 9 
1 1 3 4 8 9 
2 2 3 3 6 10 19 
1 1 3 6 8 9 
2 4 5 3 7 11 13 
1 6 3 12 14 15 
3 2 3 5 3 10 11 14 
3 2 3 5 3 10 11 14 
3 4 8 9 3 12 13 22 
3 8 6 9 3 12 15 16 
3 11 10 7 3 17 27 29 
2 6 10 3 15 16 17 
3 9 7 8 3 16 17 22 
3 13 11 7 0 
3 11 14 13 2 21 29 
3 13 14 12 1 21 
1 0 3 19 24 25 
2 18 4 2 26 27 
1 0 3 21 22 25 
3 16 17 20 1 24 
3 14 10 20 2 26 27 
0 3 24 25 26 
3 21 23 18 0 
3 20 23 18 0 
3 23 22 19 0 
3 12 22 19 0 
0 1 29 
3 28 16 12 0 
0 3 31 32 42 
1 30 3 33 34 36 
1 30 3 33 34 36 
2 31 32 3 35 37 40 
2 32 31 3 35 37 40 
2 33 34 3 38 46 56 
2 32 31 2 37 43 
3 34 36 33 3 38 46 56 
2 35 37 3 41 44 54 
0 3 40 42 46 
3 34 39 33 3 41 43 44 
2 38 40 3 45 47 48 
2 30 39 3 43 44 48 
3 40 36 42 3 45 47 50 
3 40 42 38 3 45 47 50 
3 41 43 44 2 49 51 
3 39 37 35 3 48 49 54 
3 44 41 43 2 49 51 
3 46 41 42 2 50 51 
3 46 45 47 2 52 53 
3 43 48 44 3 52 53 55 
3 47 48 45 3 52 53 55 
3 51 49 50 1 59 
3 51 50 49 2 57 58 
2 38 46 1 55 
3 51 50 54 3 57 58 59 
2 37 35 3 57 58 59 
3 56 53 55 0 
3 53 56 55 0 
3 55 52 56 0 
0 3 61 64 65 
1 60 3 63 67 69 
0 3 63 64 65 
2 61 62 3 66 72 76 
2 62 60 3 66 67 69 
2 60 62 3 66 67 69 
3 63 65 64 3 68 71 77 
3 61 64 65 3 68 71 72 
2 66 67 3 73 75 80 
3 64 61 65 3 71 76 77 
0 3 72 73 76 
3 67 69 66 3 73 75 80 
3 63 70 67 3 74 75 77 
3 71 70 68 3 74 86 89 
2 72 73 3 78 85 87 
3 72 68 71 3 78 82 85 
3 69 63 70 3 78 82 87 
3 69 72 66 3 79 80 87 
3 76 74 75 1 79 
2 78 77 2 81 83 
3 68 77 71 3 81 82 85 
2 79 80 1 84 
3 80 75 76 3 83 84 86 
2 82 79 1 88 
2 81 82 0 
3 74 80 75 0 
2 73 82 1 88 
3 77 74 76 1 88 
3 87 86 83 0 
1 73 0 
0 3 92 93 101 
0 3 92 93 101 
2 91 90 3 94 97 99 
2 90 91 3 94 97 99 
2 93 92 3 95 98 102 
1 94 3 100 103 105 
0 3 97 98 99 
3 96 93 92 3 100 103 104 
2 94 96 3 100 104 105 
3 92 96 93 2 102 115 
3 95 97 98 3 106 109 115 
2 90 91 3 102 105 115 
3 99 101 94 3 103 104 119 
3 102 95 97 3 106 109 111 
3 97 98 102 3 106 109 111 
3 98 95 101 3 107 108 111 
3 100 103 104 3 107 108 113 
2 106 105 3 110 112 114 
2 106 105 2 110 112 
3 104 100 103 3 110 113 114 
3 108 109 107 2 116 117 
3 104 103 105 3 112 113 114 
3 107 108 111 1 118 
3 106 109 111 2 116 117 
3 111 107 109 2 116 117 
3 99 100 101 1 119 
3 114 113 110 1 118 
3 113 114 110 1 118 
3 116 112 117 0 
2 102 115 0 
0 3 121 123 125 
1 120 3 124 132 137 
0 3 123 125 132 
2 122 120 3 124 137 142 
2 121 123 3 126 128 129 
2 122 120 3 126 128 129 
2 125 124 3 127 130 134 
1 126 2 131 138 
2 124 125 3 130 134 136 
2 124 125 3 130 134 136 
3 126 128 129 3 131 138 149 
2 130 127 3 133 135 139 
2 122 121 3 133 135 136 
2 132 131 1 140 
3 129 126 128 3 135 140 149 
3 131 134 132 2 143 147 
3 128 132 129 2 139 149 
2 123 121 2 138 139 
3 137 130 127 2 143 145 
3 137 131 136 2 140 145 
3 139 133 134 1 143 
0 3 142 144 145 
2 123 141 3 146 147 148 
3 140 135 138 3 144 146 148 
2 143 141 0 
3 138 139 141 3 146 147 148 
3 143 142 145 0 
3 135 145 142 0 
3 145 143 142 0 
3 136 134 130 0 
0 3 152 154 155 
0 3 152 154 155 
2 151 150 3 156 157 162 
0 3 154 155 156 
3 151 150 153 3 157 162 174 
3 150 151 153 3 157 162 174 
2 153 152 3 158 159 160 
3 152 155 154 3 158 159 160 
2 157 156 3 161 165 166 
2 156 157 3 161 163 164 
2 156 157 3 161 163 164 
3 159 158 160 3 167 168 169 
3 152 155 154 3 163 164 166 
3 159 160 162 3 165 167 170 
3 162 160 159 3 165 168 169 
3 158 164 163 3 171 172 176 
2 162 158 3 167 168 169 
3 163 166 161 1 176 
3 161 164 166 3 170 171 172 
3 164 161 166 3 170 171 172 
3 169 168 163 2 173 177 
3 165 169 168 2 175 178 
3 168 169 165 2 173 175 
2 170 172 2 178 179 
2 154 155 1 176 
2 172 171 1 179 
3 167 165 174 2 177 178 
2 176 170 0 
3 173 176 171 0 
2 175 173 0 
0 3 182 191 196 
0 3 182 191 196 
2 180 181 3 184 185 186 
0 3 184 185 186 
2 183 182 2 188 189 
2 182 183 3 187 188 189 
2 182 183 3 187 188 189 
2 185 186 3 190 192 193 
3 186 184 185 3 190 192 195 
3 184 186 185 3 190 192 193 
3 187 189 188 2 194 202 
2 181 180 3 193 195 202 
3 188 187 189 3 194 199 202 
3 187 189 191 3 194 199 203 
3 190 193 192 3 197 198 200 
2 191 188 3 197 198 200 
2 180 181 3 197 198 199 
3 194 195 196 3 201 204 205 
3 194 195 196 3 201 204 205 
3 193 196 192 2 200 209 
3 194 195 199 3 201 206 208 
3 200 198 197 1 207 
3 191 190 192 3 203 206 207 
2 202 193 3 204 205 209 
3 197 203 198 1 208 
3 203 198 197 1 208 
2 200 202 0 
2 202 201 0 
3 204 200 205 0 
2 203 199 0 
0 3 211 217 235 
1 210 3 212 216 228 
1 211 2 215 225 
0 3 215 216 217 
0 3 215 216 217 
3 212 213 214 2 218 220 
3 214 211 213 3 218 220 225 
3 214 210 213 3 218 220 225 
3 216 217 215 3 219 221 224 
1 218 3 222 223 226 
3 215 217 216 3 221 222 224 
2 218 220 2 223 230 
2 220 219 3 227 230 234 
2 219 221 3 227 234 238 
2 220 218 3 226 234 238 
3 216 212 217 3 226 227 238 
3 225 219 224 2 229 230 
3 222 223 225 3 229 231 233 
1 211 3 229 231 233 
3 227 228 226 2 232 237 
3 221 226 222 2 231 233 
3 227 230 228 2 232 236 
2 231 229 1 239 
3 227 230 228 1 236 
3 223 224 222 1 236 
1 210 1 237 
3 233 231 234 2 237 239 
3 236 229 235 0 
3 225 223 224 1 239 
3 236 232 238 0 
0 2 244 250 
0 3 243 244 250 
0 3 243 244 250 
2 241 242 3 245 246 249 
3 242 241 240 2 245 249 
2 244 243 3 247 253 255 
1 243 3 247 253 255 
2 246 245 3 248 251 252 
1 247 3 254 261 267 
2 243 244 3 251 252 255 
3 241 242 240 3 251 252 253 
3 250 249 247 2 258 261 
3 247 250 249 3 256 257 267 
3 245 250 246 3 254 258 261 
2 248 253 2 256 257 
3 245 249 246 3 256 257 258 
3 254 252 255 2 259 260 
3 252 254 255 2 259 260 
3 251 255 253 3 259 260 263 
3 257 256 258 3 262 264 265 
3 258 256 257 3 262 264 265 
3 248 253 251 2 262 263 
3 260 259 261 3 266 268 269 
2 258 261 2 264 265 
3 259 263 260 1 266 
3 263 260 259 3 266 268 269 
3 262 264 265 0 
2 248 252 2 268 269 
3 262 265 267 0 
3 262 265 267 0 
0 3 272 274 275 
0 3 272 274 275 
2 270 271 3 276 277 278 
0 3 274 275 279 
3 271 273 270 3 276 277 278 
3 273 271 270 3 276 277 278 
3 275 272 274 3 280 283 286 
3 272 274 275 3 281 282 287 
3 274 275 272 3 280 282 287 
1 273 3 280 282 287 
3 278 276 279 2 281 291 
2 280 277 2 284 285 
3 279 278 277 3 283 285 286 
2 276 282 3 284 290 291 
2 283 281 3 288 289 294 
2 281 282 3 288 290 294 
2 276 282 3 289 290 291 
3 279 277 278 3 288 289 292 
3 284 287 285 3 293 298 299 
3 284 287 286 2 297 299 
3 283 286 285 2 295 296 
3 280 286 283 3 293 294 295 
1 287 3 293 295 296 
3 292 288 291 0 
3 291 284 285 1 296 
3 292 291 290 2 297 299 
3 292 290 294 1 297 
3 296 289 295 1 298 
2 288 297 0 
3 288 295 289 0 
0 3 301 302 316 
1 300 3 303 308 309 
1 300 3 303 308 309 
2 302 301 3 304 305 323 
1 303 3 306 307 312 
1 303 3 306 307 314 
2 305 304 2 310 313 
2 305 304 2 310 319 
2 302 301 3 310 312 314 
2 302 301 3 313 323 324 
3 308 307 306 3 315 320 321 
0 3 312 313 314 
3 308 311 304 3 317 318 319 
3 306 311 309 2 315 321 
3 305 308 311 3 315 320 324 
3 310 313 314 3 317 318 325 
1 300 3 317 318 319 
3 315 316 312 2 322 326 
3 315 316 312 2 322 327 
3 316 307 312 3 320 321 324 
3 314 310 319 3 325 327 328 
3 313 310 319 2 322 326 
3 321 318 317 1 328 
2 309 303 2 327 328 
3 309 314 319 2 325 326 
3 320 315 324 1 329 
3 324 317 321 0 
3 318 320 323 0 
3 322 320 323 0 
1 325 0 
0 3 332 335 337 
0 3 332 335 337 
2 330 331 3 333 334 336 
1 332 3 338 341 346 
1 332 3 338 341 343 
2 330 331 3 336 341 351 
2 332 335 3 338 343 346 
2 331 330 3 340 343 347 
3 333 334 336 3 340 344 347 
0 3 340 344 346 
3 337 338 339 3 342 345 349 
3 334 335 333 3 342 344 345 
2 341 340 3 348 350 354 
3 334 336 337 2 348 349 
3 341 338 339 3 348 350 355 
2 340 341 3 353 355 357 
3 339 333 336 3 347 354 359 
3 337 346 338 3 349 350 355 
3 343 342 344 3 352 356 359 
3 343 340 347 2 353 358 
3 342 344 347 3 352 356 357 
1 335 3 352 354 357 
3 348 350 351 2 353 358 
3 352 345 349 0 
3 351 342 346 1 356 
3 344 347 345 1 358 
3 348 350 354 0 
3 351 350 345 0 
3 349 352 355 0 
2 346 348 0 
0 2 361 381 
1 360 3 364 365 366 
0 3 364 365 366 
0 3 364 365 366 
3 361 362 363 3 367 368 369 
3 362 363 361 3 367 368 369 
3 362 361 363 3 367 368 369 
3 366 364 365 3 370 371 372 
3 364 366 365 3 370 371 372 
3 364 366 365 3 370 371 372 
3 368 367 369 3 373 375 376 
3 368 367 369 3 373 375 376 
3 369 368 367 3 373 375 376 
3 372 370 371 3 374 377 385 
1 373 3 378 379 382 
3 372 371 370 3 377 379 382 
3 372 371 370 3 377 379 382 
3 373 376 375 2 378 380 
2 377 374 2 383 386 
3 375 376 374 2 380 383 
2 379 377 2 384 386 
1 360 3 384 385 386 
3 375 376 374 3 383 384 387 
3 378 379 382 1 388 
3 381 382 380 1 388 
2 373 381 1 387 
3 380 378 381 1 387 
3 386 382 385 1 388 
3 387 384 383 1 389 
1 388 0 
0 3 392 393 400 
0 3 392 393 400 
2 390 391 3 394 395 396 
2 390 391 3 394 395 396 
2 393 392 3 397 399 402 
2 392 393 3 397 401 414 
2 393 392 3 397 399 402 
3 395 396 394 3 403 405 406 
0 3 399 400 402 
3 394 398 396 3 401 408 412 
3 391 398 390 3 401 406 414 
3 399 395 400 3 403 405 413 
3 394 398 396 3 403 405 406 
3 397 401 402 2 404 407 
1 403 3 409 410 411 
3 401 402 397 3 407 409 410 
3 397 402 400 3 407 408 412 
3 405 403 406 2 411 415 
2 399 406 3 409 410 411 
3 404 408 405 0 
3 408 404 405 2 415 418 
3 407 404 408 3 416 417 418 
2 406 399 1 413 
2 401 412 3 416 417 418 
2 395 400 1 415 
3 407 410 414 2 416 417 
3 415 411 413 1 419 
3 411 413 415 1 419 
3 411 410 413 1 419 
3 417 416 418 0 
0 3 422 423 425 
0 3 422 423 425 
2 421 420 3 424 428 429 
2 420 421 3 424 427 428 
2 422 423 3 430 431 432 
2 421 420 3 427 429 431 
0 3 427 428 429 
3 426 425 423 2 430 432 
3 426 423 422 3 431 432 433 
3 422 426 425 1 430 
3 424 429 427 3 433 436 438 
3 428 425 424 3 434 436 438 
3 427 428 424 3 434 436 438 
2 428 430 2 434 442 
3 433 432 431 3 435 437 444 
1 434 3 439 440 447 
3 430 432 431 3 437 442 444 
2 436 434 3 439 440 447 
3 430 431 432 3 439 440 442 
3 438 437 435 3 441 443 446 
3 437 438 435 2 441 443 
2 440 439 1 445 
3 433 436 438 3 443 446 447 
3 440 439 442 2 445 449 
2 436 434 2 445 446 
3 444 443 441 1 448 
3 439 444 442 2 448 449 
3 437 442 435 2 448 449 
3 447 445 446 0 
3 446 443 447 0 
0 3 451 454 455 
1 450 3 453 458 460 
0 3 453 454 455 
2 452 451 2 456 461 
2 452 450 3 456 460 463 
2 450 452 3 456 458 461 
3 454 453 455 3 459 462 464 
0 3 458 459 460 
3 451 455 457 3 462 463 467 
2 456 457 3 465 466 467 
3 451 457 454 3 461 462 467 
3 455 460 453 3 464 465 466 
3 460 456 458 3 465 468 470 
2 454 458 2 464 473 
3 456 461 463 3 468 470 478 
3 459 461 462 3 469 471 472 
2 459 461 3 469 470 471 
3 460 458 459 3 468 473 478 
3 464 462 467 3 469 471 472 
3 468 465 466 2 474 475 
3 464 462 466 3 472 475 476 
3 466 465 468 3 474 476 479 
3 470 468 465 1 479 
2 463 467 2 474 475 
3 471 473 469 1 477 
3 469 470 473 2 477 479 
2 471 470 1 477 
3 475 476 474 0 
2 467 464 0 
3 475 472 471 0 
0 3 481 488 490 
1 480 3 482 485 492 
1 481 3 484 486 487 
0 3 484 485 486 
2 482 483 3 493 494 495 
2 481 483 3 487 491 493 
2 483 482 3 491 498 500 
2 485 482 3 494 495 498 
1 480 3 492 497 500 
0 3 490 492 500 
2 480 489 3 491 501 508 
3 486 490 485 1 494 
3 488 489 481 3 493 495 496 
3 485 484 492 3 498 501 504 
3 491 484 487 3 496 497 499 
3 484 492 487 3 499 502 503 
2 494 492 1 504 
2 494 488 3 502 504 509 
3 487 493 486 3 499 502 503 
3 494 498 495 1 505 
3 489 486 488 3 501 503 505 
3 500 493 490 2 507 509 
3 497 498 495 1 506 
3 498 500 495 2 506 508 
3 493 497 496 1 505 
3 500 504 499 1 506 
3 502 505 503 1 507 
2 506 501 0 
2 490 503 1 509 
3 497 501 508 0 
0 3 513 514 517 
0 3 513 514 517 
0 3 513 514 517 
3 510 511 512 3 515 516 520 
3 511 512 510 3 515 516 520 
2 514 513 3 518 526 530 
2 513 514 3 518 526 530 
3 511 512 510 3 518 520 526 
3 517 516 515 3 519 521 525 
1 518 3 522 536 537 
3 513 517 514 3 521 525 530 
2 518 520 3 522 529 537 
2 521 519 3 523 524 538 
1 522 2 527 528 
1 522 2 527 528 
2 518 520 3 528 529 537 
3 516 517 515 3 527 529 533 
3 524 526 523 2 531 532 
3 523 525 524 3 532 533 534 
3 521 525 526 3 531 532 536 
3 520 516 515 3 531 533 536 
3 527 530 529 2 534 539 
3 528 529 527 1 535 
3 528 526 530 1 535 
2 531 528 1 535 
3 534 533 532 0 
3 529 519 530 2 538 539 
3 519 525 521 2 538 539 
3 522 536 537 0 
3 537 531 536 0 
0 3 541 549 552 
1 540 3 544 545 546 
0 3 544 545 546 
0 3 544 545 546 
3 543 542 541 3 547 548 550 
3 542 541 543 3 547 548 551 
3 542 541 543 3 547 548 550 
3 545 546 544 3 553 554 555 
3 544 545 546 3 556 557 560 
1 540 3 550 566 569 
3 549 546 544 3 551 553 560 
2 545 550 3 554 555 565 
1 540 3 553 554 555 
3 547 550 552 3 556 557 562 
3 547 551 552 3 556 557 562 
3 551 547 552 3 558 561 568 
3 553 548 554 3 558 561 563 
3 553 554 548 3 558 563 564 
3 557 556 555 2 559 567 
1 558 0 
2 550 548 3 561 562 563 
3 556 560 555 1 564 
3 560 553 554 2 564 567 
3 557 556 560 0 
3 557 562 561 0 
1 551 1 568 
1 549 2 567 568 
3 562 558 566 0 
3 565 555 566 0 
1 549 0 
0 3 572 573 578 
0 3 572 573 578 
2 571 570 3 574 575 582 
2 571 570 3 574 575 582 
2 572 573 3 576 577 586 
2 572 573 3 576 577 586 
2 575 574 3 579 581 583 
2 575 574 3 579 581 583 
2 570 571 3 579 581 584 
3 576 578 577 3 585 589 597 
0 1 597 
3 577 578 576 3 585 587 588 
2 572 573 3 583 586 589 
3 577 576 582 3 584 585 587 
2 578 583 3 588 591 592 
3 583 581 579 3 590 591 592 
3 575 582 574 2 587 588 
3 586 581 583 2 592 595 
3 586 584 581 3 590 593 596 
2 582 579 2 590 596 
3 585 588 589 3 594 595 598 
2 585 584 3 593 595 596 
3 584 587 585 3 594 598 599 
2 588 591 2 594 599 
3 590 592 593 0 
3 590 591 587 0 
3 591 589 588 0 
2 579 580 2 598 599 
3 590 592 597 0 
3 592 593 597 0 
